NAME: US_Cities_TSP
TYPE: TSP
DIMENSION: 20
EDGE_WEIGHT_TYPE: EUC_2D
NODE_COORD_SECTION
1 1330.948975461181 -4641.570681038582
2 1250.0798262120609 -4721.3512002187645
3 1141.2004022974045 -4797.6859356505565
4 827.5553989521395 -5137.886430764691
5 2.7285530897842682 -5211.15206451132
6 793.8971333268739 -5441.96703603728
7 -518.5150609374459 -5505.828923912633
8 -743.9035337373846 -5451.856726165898
9 -816.494870673119 -5482.931612869497
10 -683.6278966179437 -5314.470652966017
11 -634.2254343597896 -5318.774274971502
12 -2444.265706090485 -4766.252914787199
13 -2498.506560164416 -4649.946834629881
14 -2675.8519800935524 -4303.957529727856
15 -2699.6077590952523 -4250.620797665597
16 328.75064485392977 -4885.108183027915
17 -1997.336221276086 -4926.24399275304
18 596.6451113578288 -4845.301440972714
19 196.15536629950367 -4739.436270369759
20 569.9179991587192 -4675.335912111313
EOF